32      4       
10      10      10      10      
0       0       0       0       0       9       2       3       4       5       6       7       8       11      16      
2       1       1       1       0       5       10      12      13      14      20      
9       5       0       4       1       5       9       10      12      20      21      
4       6       0       4       4       6       13      14      15      19      20      21      
6       3       4       0       5       3       10      14      20      
1       0       1       2       2       2       9       20      
6       0       2       7       5       5       18      19      20      21      31      
3       0       5       4       5       4       13      20      21      30      
9       0       8       2       7       3       13      19      31      
3       0       5       5       4       4       18      19      22      31      
3       0       5       3       3       6       19      21      22      24      25      29      
1       3       0       4       4       4       18      22      23      30      
10      3       6       5       0       3       18      22      23      
7       3       5       4       0       3       17      23      30      
4       7       0       4       2       5       22      23      24      25      29      
6       2       3       5       0       3       19      22      29      
6       2       5       0       2       4       22      24      27      29      
9       2       0       2       2       4       24      25      27      29      
8       0       4       8       5       4       23      26      28      30      
8       3       0       3       3       2       22      29      
4       0       3       5       1       2       26      27      
10      7       7       0       2       1       28      
1       3       3       0       7       1       27      
4       0       4       4       4       1       26      
8       7       0       5       4       1       26      
5       0       3       3       5       1       32      
1       4       3       0       5       1       32      
2       2       4       4       0       1       32      
9       5       0       5       9       1       32      
4       6       2       3       0       1       32      
3       6       5       0       5       1       32      
0       0       0       0       0       0       
